NAME          
ROWS
 N  OBJ
 L  c2
 L  c3
 L  c4
 L  c5
 L  c6
 L  c7
 L  c8
 L  c9
 L  c10
 L  c11
 G  c1
COLUMNS
    ss[1]     c1        1
    ss[1]     OBJ       1000
    s[1]      c2        1
    s[1]      OBJ       -1000
    s[2]      c3        1
    s[2]      OBJ       -1000
    s[3]      c4        1
    s[3]      OBJ       -1000
    s[4]      c5        1
    s[4]      OBJ       -1000
    s[5]      c6        1
    s[5]      OBJ       -1000
    s[6]      c7        1
    s[6]      OBJ       -1000
    s[7]      c8        1
    s[7]      OBJ       -1000
    s[8]      c9        1
    s[8]      OBJ       -1000
    s[9]      c10       1
    s[9]      OBJ       -1000
    s[10]     c11       1
    s[10]     OBJ       -1000
    MARKER    'MARKER'                 'INTORG'
    x[1]      c2        928
    x[1]      c3        862
    x[1]      c4        107
    x[1]      c5        796
    x[1]      c6        204
    x[1]      c7        183
    x[1]      c8        517
    x[1]      c9        78
    x[1]      c10       209
    x[1]      c11       508
    x[1]      c1        556
    x[1]      OBJ       -763
    x[2]      c2        278
    x[2]      c3        618
    x[2]      c4        302
    x[2]      c5        448
    x[2]      c6        259
    x[2]      c7        284
    x[2]      c8        190
    x[2]      c9        630
    x[2]      c10       28
    x[2]      c11       415
    x[2]      c1        736
    x[2]      OBJ       -468
    x[3]      c2        856
    x[3]      c3        161
    x[3]      c4        410
    x[3]      c5        623
    x[3]      c6        673
    x[3]      c7        303
    x[3]      c8        948
    x[3]      c9        839
    x[3]      c10       678
    x[3]      c11       722
    x[3]      c1        301
    x[3]      OBJ       -1212
    x[4]      c2        450
    x[4]      c3        108
    x[4]      c4        832
    x[4]      c5        974
    x[4]      c6        746
    x[4]      c7        648
    x[4]      c8        245
    x[4]      c9        274
    x[4]      c10       808
    x[4]      c11       491
    x[4]      c1        111
    x[4]      OBJ       -1179
    x[5]      c2        881
    x[5]      c3        432
    x[5]      c4        351
    x[5]      c5        752
    x[5]      c6        699
    x[5]      c7        454
    x[5]      c8        722
    x[5]      c9        760
    x[5]      c10       719
    x[5]      c11       374
    x[5]      c1        704
    x[5]      OBJ       -912
    x[6]      c2        507
    x[6]      c3        390
    x[6]      c4        654
    x[6]      c5        555
    x[6]      c6        337
    x[6]      c7        671
    x[6]      c8        618
    x[6]      c9        928
    x[6]      c10       668
    x[6]      c11       438
    x[6]      c1        408
    x[6]      OBJ       -1155
    x[7]      c2        868
    x[7]      c3        442
    x[7]      c4        60
    x[7]      c5        535
    x[7]      c6        386
    x[7]      c7        221
    x[7]      c8        757
    x[7]      c9        53
    x[7]      c10       285
    x[7]      c11       191
    x[7]      c1        163
    x[7]      OBJ       -1181
    x[8]      c2        117
    x[8]      c3        339
    x[8]      c4        344
    x[8]      c5        726
    x[8]      c6        190
    x[8]      c7        895
    x[8]      c8        555
    x[8]      c9        957
    x[8]      c10       108
    x[8]      c11       37
    x[8]      c1        315
    x[8]      OBJ       -972
    x[9]      c2        164
    x[9]      c3        108
    x[9]      c4        727
    x[9]      c5        645
    x[9]      c6        466
    x[9]      c7        874
    x[9]      c8        487
    x[9]      c9        660
    x[9]      c10       415
    x[9]      c11       865
    x[9]      c1        670
    x[9]      OBJ       -964
    x[10]     c2        467
    x[10]     c3        391
    x[10]     c4        77
    x[10]     c5        678
    x[10]     c6        832
    x[10]     c7        493
    x[10]     c8        666
    x[10]     c9        359
    x[10]     c10       9
    x[10]     c11       618
    x[10]     c1        457
    x[10]     OBJ       -687
    x[11]     c2        503
    x[11]     c3        641
    x[11]     c4        161
    x[11]     c5        500
    x[11]     c6        871
    x[11]     c7        502
    x[11]     c8        210
    x[11]     c9        457
    x[11]     c10       220
    x[11]     c11       483
    x[11]     c1        357
    x[11]     OBJ       -1157
    x[12]     c2        259
    x[12]     c3        342
    x[12]     c4        221
    x[12]     c5        624
    x[12]     c6        641
    x[12]     c7        829
    x[12]     c8        833
    x[12]     c9        692
    x[12]     c10       136
    x[12]     c11       455
    x[12]     c1        916
    x[12]     OBJ       -636
    x[13]     c2        785
    x[13]     c3        251
    x[13]     c4        878
    x[13]     c5        711
    x[13]     c6        566
    x[13]     c7        325
    x[13]     c8        811
    x[13]     c9        702
    x[13]     c10       484
    x[13]     c11       878
    x[13]     c1        614
    x[13]     OBJ       -1097
    x[14]     c2        499
    x[14]     c3        201
    x[14]     c4        516
    x[14]     c5        401
    x[14]     c6        263
    x[14]     c7        825
    x[14]     c8        406
    x[14]     c9        249
    x[14]     c10       512
    x[14]     c11       270
    x[14]     c1        60
    x[14]     OBJ       -1093
    x[15]     c2        751
    x[15]     c3        639
    x[15]     c4        156
    x[15]     c5        786
    x[15]     c6        220
    x[15]     c7        111
    x[15]     c8        432
    x[15]     c9        214
    x[15]     c10       719
    x[15]     c11       58
    x[15]     c1        373
    x[15]     OBJ       -1025
    x[16]     c2        736
    x[16]     c3        471
    x[16]     c4        963
    x[16]     c5        726
    x[16]     c6        399
    x[16]     c7        717
    x[16]     c8        643
    x[16]     c9        105
    x[16]     c10       463
    x[16]     c11       753
    x[16]     c1        182
    x[16]     OBJ       -1412
    x[17]     c2        514
    x[17]     c3        174
    x[17]     c4        885
    x[17]     c5        984
    x[17]     c6        819
    x[17]     c7        342
    x[17]     c8        667
    x[17]     c9        886
    x[17]     c10       697
    x[17]     c11       492
    x[17]     c1        129
    x[17]     OBJ       -1239
    x[18]     c2        471
    x[18]     c3        771
    x[18]     c4        970
    x[18]     c5        488
    x[18]     c6        694
    x[18]     c7        514
    x[18]     c8        340
    x[18]     c9        129
    x[18]     c10       297
    x[18]     c11       815
    x[18]     c1        767
    x[18]     OBJ       -471
    x[19]     c2        935
    x[19]     c3        826
    x[19]     c4        431
    x[19]     c5        854
    x[19]     c6        828
    x[19]     c7        130
    x[19]     c8        893
    x[19]     c9        299
    x[19]     c10       536
    x[19]     c11       682
    x[19]     c1        896
    x[19]     OBJ       -572
    x[20]     c2        85
    x[20]     c3        817
    x[20]     c4        59
    x[20]     c5        162
    x[20]     c6        400
    x[20]     c7        488
    x[20]     c8        887
    x[20]     c9        124
    x[20]     c10       136
    x[20]     c11       132
    x[20]     c1        178
    x[20]     OBJ       -938
    x[21]     c2        765
    x[21]     c3        758
    x[21]     c4        302
    x[21]     c5        817
    x[21]     c6        643
    x[21]     c7        45
    x[21]     c8        490
    x[21]     c9        704
    x[21]     c10       310
    x[21]     c11       625
    x[21]     c1        975
    x[21]     OBJ       -278
    x[22]     c2        987
    x[22]     c3        603
    x[22]     c4        280
    x[22]     c5        890
    x[22]     c6        707
    x[22]     c7        172
    x[22]     c8        981
    x[22]     c9        438
    x[22]     c10       248
    x[22]     c11       745
    x[22]     c1        226
    x[22]     OBJ       -1378
    x[23]     c2        550
    x[23]     c3        452
    x[23]     c4        612
    x[23]     c5        847
    x[23]     c6        733
    x[23]     c7        394
    x[23]     c8        191
    x[23]     c9        857
    x[23]     c10       755
    x[23]     c11       411
    x[23]     c1        404
    x[23]     OBJ       -1289
    x[24]     c2        386
    x[24]     c3        66
    x[24]     c4        605
    x[24]     c5        347
    x[24]     c6        347
    x[24]     c7        330
    x[24]     c8        997
    x[24]     c9        721
    x[24]     c10       488
    x[24]     c11       220
    x[24]     c1        833
    x[24]     OBJ       -615
    x[25]     c2        936
    x[25]     c3        313
    x[25]     c4        470
    x[25]     c5        26
    x[25]     c6        877
    x[25]     c7        166
    x[25]     c8        170
    x[25]     c9        86
    x[25]     c10       37
    x[25]     c11       49
    x[25]     c1        575
    x[25]     OBJ       -412
    x[26]     c2        764
    x[26]     c3        230
    x[26]     c4        35
    x[26]     c5        257
    x[26]     c6        727
    x[26]     c7        292
    x[26]     c8        221
    x[26]     c9        633
    x[26]     c10       237
    x[26]     c11       911
    x[26]     c1        340
    x[26]     OBJ       -795
    x[27]     c2        611
    x[27]     c3        430
    x[27]     c4        233
    x[27]     c5        691
    x[27]     c6        428
    x[27]     c7        395
    x[27]     c8        189
    x[27]     c9        442
    x[27]     c10       85
    x[27]     c11       522
    x[27]     c1        321
    x[27]     OBJ       -793
    x[28]     c2        147
    x[28]     c3        881
    x[28]     c4        301
    x[28]     c5        165
    x[28]     c6        563
    x[28]     c7        234
    x[28]     c8        63
    x[28]     c9        391
    x[28]     c10       939
    x[28]     c11       405
    x[28]     c1        580
    x[28]     OBJ       -891
    x[29]     c2        104
    x[29]     c3        539
    x[29]     c4        493
    x[29]     c5        811
    x[29]     c6        707
    x[29]     c7        672
    x[29]     c8        213
    x[29]     c9        195
    x[29]     c10       297
    x[29]     c11       847
    x[29]     c1        425
    x[29]     OBJ       -786
    x[30]     c2        788
    x[30]     c3        850
    x[30]     c4        756
    x[30]     c5        462
    x[30]     c6        142
    x[30]     c7        573
    x[30]     c8        579
    x[30]     c9        825
    x[30]     c10       723
    x[30]     c11       933
    x[30]     c1        955
    x[30]     OBJ       -647
    x[31]     c2        45
    x[31]     c3        235
    x[31]     c4        715
    x[31]     c5        658
    x[31]     c6        944
    x[31]     c7        420
    x[31]     c8        599
    x[31]     c9        321
    x[31]     c10       75
    x[31]     c11       978
    x[31]     c1        739
    x[31]     OBJ       -839
    x[32]     c2        661
    x[32]     c3        678
    x[32]     c4        781
    x[32]     c5        922
    x[32]     c6        812
    x[32]     c7        992
    x[32]     c8        528
    x[32]     c9        500
    x[32]     c10       762
    x[32]     c11       54
    x[32]     c1        473
    x[32]     OBJ       -1001
    x[33]     c2        552
    x[33]     c3        34
    x[33]     c4        494
    x[33]     c5        129
    x[33]     c6        322
    x[33]     c7        539
    x[33]     c8        714
    x[33]     c9        870
    x[33]     c10       307
    x[33]     c11       454
    x[33]     c1        946
    x[33]     OBJ       -193
    x[34]     c2        991
    x[34]     c3        812
    x[34]     c4        233
    x[34]     c5        90
    x[34]     c6        360
    x[34]     c7        710
    x[34]     c8        652
    x[34]     c9        230
    x[34]     c10       195
    x[34]     c11       733
    x[34]     c1        666
    x[34]     OBJ       -715
    x[35]     c2        212
    x[35]     c3        13
    x[35]     c4        94
    x[35]     c5        597
    x[35]     c6        247
    x[35]     c7        882
    x[35]     c8        917
    x[35]     c9        112
    x[35]     c10       109
    x[35]     c11       114
    x[35]     c1        630
    x[35]     OBJ       -770
    x[36]     c2        407
    x[36]     c3        627
    x[36]     c4        717
    x[36]     c5        834
    x[36]     c6        244
    x[36]     c7        19
    x[36]     c8        174
    x[36]     c9        345
    x[36]     c10       324
    x[36]     c11       8
    x[36]     c1        462
    x[36]     OBJ       -648
    x[37]     c2        794
    x[37]     c3        487
    x[37]     c4        135
    x[37]     c5        839
    x[37]     c6        135
    x[37]     c7        355
    x[37]     c8        480
    x[37]     c9        296
    x[37]     c10       645
    x[37]     c11       198
    x[37]     c1        841
    x[37]     OBJ       -577
    x[38]     c2        353
    x[38]     c3        761
    x[38]     c4        786
    x[38]     c5        77
    x[38]     c6        666
    x[38]     c7        568
    x[38]     c8        944
    x[38]     c9        103
    x[38]     c10       630
    x[38]     c11       771
    x[38]     c1        2
    x[38]     OBJ       -1398
    x[39]     c2        57
    x[39]     c3        624
    x[39]     c4        378
    x[39]     c5        549
    x[39]     c6        675
    x[39]     c7        715
    x[39]     c8        954
    x[39]     c9        726
    x[39]     c10       79
    x[39]     c11       557
    x[39]     c1        778
    x[39]     OBJ       -829
    x[40]     c2        961
    x[40]     c3        239
    x[40]     c4        765
    x[40]     c5        67
    x[40]     c6        273
    x[40]     c7        978
    x[40]     c8        383
    x[40]     c9        329
    x[40]     c10       933
    x[40]     c11       77
    x[40]     c1        714
    x[40]     OBJ       -565
    x[41]     c2        350
    x[41]     c3        350
    x[41]     c4        16
    x[41]     c5        994
    x[41]     c6        646
    x[41]     c7        295
    x[41]     c8        884
    x[41]     c9        398
    x[41]     c10       827
    x[41]     c11       351
    x[41]     c1        855
    x[41]     OBJ       -413
    x[42]     c2        4
    x[42]     c3        661
    x[42]     c4        155
    x[42]     c5        407
    x[42]     c6        52
    x[42]     c7        392
    x[42]     c8        529
    x[42]     c9        276
    x[42]     c10       293
    x[42]     c11       641
    x[42]     c1        768
    x[42]     OBJ       -294
    x[43]     c2        782
    x[43]     c3        807
    x[43]     c4        550
    x[43]     c5        395
    x[43]     c6        274
    x[43]     c7        183
    x[43]     c8        231
    x[43]     c9        222
    x[43]     c10       227
    x[43]     c11       212
    x[43]     c1        141
    x[43]     OBJ       -941
    x[44]     c2        517
    x[44]     c3        124
    x[44]     c4        454
    x[44]     c5        594
    x[44]     c6        671
    x[44]     c7        238
    x[44]     c8        869
    x[44]     c9        568
    x[44]     c10       135
    x[44]     c11       137
    x[44]     c1        847
    x[44]     OBJ       -508
    x[45]     c2        622
    x[45]     c3        949
    x[45]     c4        796
    x[45]     c5        186
    x[45]     c6        938
    x[45]     c7        519
    x[45]     c8        322
    x[45]     c9        597
    x[45]     c10       108
    x[45]     c11       511
    x[45]     c1        325
    x[45]     OBJ       -1101
    x[46]     c2        394
    x[46]     c3        196
    x[46]     c4        445
    x[46]     c5        519
    x[46]     c6        192
    x[46]     c7        281
    x[46]     c8        431
    x[46]     c9        219
    x[46]     c10       729
    x[46]     c11       178
    x[46]     c1        765
    x[46]     OBJ       -430
    x[47]     c2        205
    x[47]     c3        890
    x[47]     c4        953
    x[47]     c5        963
    x[47]     c6        881
    x[47]     c7        63
    x[47]     c8        671
    x[47]     c9        278
    x[47]     c10       16
    x[47]     c11       675
    x[47]     c1        10
    x[47]     OBJ       -1591
    x[48]     c2        96
    x[48]     c3        69
    x[48]     c4        876
    x[48]     c5        685
    x[48]     c6        558
    x[48]     c7        489
    x[48]     c8        498
    x[48]     c9        261
    x[48]     c10       82
    x[48]     c11       186
    x[48]     c1        162
    x[48]     OBJ       -1143
    x[49]     c2        805
    x[49]     c3        444
    x[49]     c4        416
    x[49]     c5        185
    x[49]     c6        955
    x[49]     c7        945
    x[49]     c8        149
    x[49]     c9        449
    x[49]     c10       891
    x[49]     c11       788
    x[49]     c1        208
    x[49]     OBJ       -1250
    x[50]     c2        198
    x[50]     c3        772
    x[50]     c4        19
    x[50]     c5        439
    x[50]     c6        264
    x[50]     c7        335
    x[50]     c8        189
    x[50]     c9        268
    x[50]     c10       49
    x[50]     c11       735
    x[50]     c1        981
    x[50]     OBJ       -482
    x[51]     c2        321
    x[51]     c3        757
    x[51]     c4        332
    x[51]     c5        927
    x[51]     c6        382
    x[51]     c7        746
    x[51]     c8        446
    x[51]     c9        116
    x[51]     c10       488
    x[51]     c11       342
    x[51]     c1        638
    x[51]     OBJ       -621
    x[52]     c2        623
    x[52]     c3        74
    x[52]     c4        501
    x[52]     c5        654
    x[52]     c6        476
    x[52]     c7        362
    x[52]     c8        130
    x[52]     c9        520
    x[52]     c10       540
    x[52]     c11       262
    x[52]     c1        184
    x[52]     OBJ       -1014
    x[53]     c2        995
    x[53]     c3        80
    x[53]     c4        806
    x[53]     c5        14
    x[53]     c6        483
    x[53]     c7        195
    x[53]     c8        151
    x[53]     c9        307
    x[53]     c10       294
    x[53]     c11       8
    x[53]     c1        124
    x[53]     OBJ       -958
    x[54]     c2        235
    x[54]     c3        534
    x[54]     c4        316
    x[54]     c5        620
    x[54]     c6        852
    x[54]     c7        475
    x[54]     c8        305
    x[54]     c9        91
    x[54]     c10       903
    x[54]     c11       747
    x[54]     c1        910
    x[54]     OBJ       -345
    x[55]     c2        247
    x[55]     c3        47
    x[55]     c4        393
    x[55]     c5        692
    x[55]     c6        799
    x[55]     c7        883
    x[55]     c8        184
    x[55]     c9        696
    x[55]     c10       484
    x[55]     c11       617
    x[55]     c1        332
    x[55]     OBJ       -874
    x[56]     c2        801
    x[56]     c3        502
    x[56]     c4        662
    x[56]     c5        327
    x[56]     c6        392
    x[56]     c7        387
    x[56]     c8        354
    x[56]     c9        226
    x[56]     c10       625
    x[56]     c11       504
    x[56]     c1        634
    x[56]     OBJ       -574
    x[57]     c2        994
    x[57]     c3        719
    x[57]     c4        593
    x[57]     c5        375
    x[57]     c6        750
    x[57]     c7        910
    x[57]     c8        7
    x[57]     c9        798
    x[57]     c10       443
    x[57]     c11       23
    x[57]     c1        555
    x[57]     OBJ       -823
    x[58]     c2        754
    x[58]     c3        25
    x[58]     c4        357
    x[58]     c5        326
    x[58]     c6        821
    x[58]     c7        674
    x[58]     c8        983
    x[58]     c9        440
    x[58]     c10       618
    x[58]     c11       127
    x[58]     c1        55
    x[58]     OBJ       -1125
    x[59]     c2        883
    x[59]     c3        687
    x[59]     c4        842
    x[59]     c5        215
    x[59]     c6        158
    x[59]     c7        621
    x[59]     c8        787
    x[59]     c9        921
    x[59]     c10       865
    x[59]     c11       42
    x[59]     c1        396
    x[59]     OBJ       -1023
    x[60]     c2        353
    x[60]     c3        311
    x[60]     c4        281
    x[60]     c5        717
    x[60]     c6        658
    x[60]     c7        617
    x[60]     c8        596
    x[60]     c9        439
    x[60]     c10       801
    x[60]     c11       170
    x[60]     c1        23
    x[60]     OBJ       -1388
    x[61]     c2        837
    x[61]     c3        659
    x[61]     c4        214
    x[61]     c5        440
    x[61]     c6        645
    x[61]     c7        543
    x[61]     c8        286
    x[61]     c9        1000
    x[61]     c10       782
    x[61]     c11       794
    x[61]     c1        171
    x[61]     OBJ       -1110
    x[62]     c2        780
    x[62]     c3        421
    x[62]     c4        885
    x[62]     c5        835
    x[62]     c6        990
    x[62]     c7        876
    x[62]     c8        794
    x[62]     c9        232
    x[62]     c10       585
    x[62]     c11       581
    x[62]     c1        310
    x[62]     OBJ       -1173
    x[63]     c2        641
    x[63]     c3        630
    x[63]     c4        337
    x[63]     c5        414
    x[63]     c6        625
    x[63]     c7        434
    x[63]     c8        444
    x[63]     c9        9
    x[63]     c10       375
    x[63]     c11       360
    x[63]     c1        181
    x[63]     OBJ       -1186
    x[64]     c2        224
    x[64]     c3        251
    x[64]     c4        753
    x[64]     c5        7
    x[64]     c6        700
    x[64]     c7        673
    x[64]     c8        807
    x[64]     c9        340
    x[64]     c10       37
    x[64]     c11       834
    x[64]     c1        378
    x[64]     OBJ       -1054
    x[65]     c2        485
    x[65]     c3        815
    x[65]     c4        654
    x[65]     c5        197
    x[65]     c6        2
    x[65]     c7        500
    x[65]     c8        807
    x[65]     c9        721
    x[65]     c10       484
    x[65]     c11       713
    x[65]     c1        600
    x[65]     OBJ       -1021
    x[66]     c2        155
    x[66]     c3        512
    x[66]     c4        829
    x[66]     c5        652
    x[66]     c6        555
    x[66]     c7        893
    x[66]     c8        423
    x[66]     c9        186
    x[66]     c10       236
    x[66]     c11       565
    x[66]     c1        742
    x[66]     OBJ       -753
    x[67]     c2        202
    x[67]     c3        541
    x[67]     c4        211
    x[67]     c5        590
    x[67]     c6        347
    x[67]     c7        341
    x[67]     c8        331
    x[67]     c9        640
    x[67]     c10       485
    x[67]     c11       175
    x[67]     c1        275
    x[67]     OBJ       -1121
    x[68]     c2        196
    x[68]     c3        346
    x[68]     c4        777
    x[68]     c5        819
    x[68]     c6        993
    x[68]     c7        962
    x[68]     c8        425
    x[68]     c9        440
    x[68]     c10       175
    x[68]     c11       732
    x[68]     c1        601
    x[68]     OBJ       -788
    x[69]     c2        219
    x[69]     c3        395
    x[69]     c4        630
    x[69]     c5        848
    x[69]     c6        568
    x[69]     c7        296
    x[69]     c8        914
    x[69]     c9        646
    x[69]     c10       996
    x[69]     c11       714
    x[69]     c1        951
    x[69]     OBJ       -694
    x[70]     c2        905
    x[70]     c3        747
    x[70]     c4        149
    x[70]     c5        741
    x[70]     c6        448
    x[70]     c7        261
    x[70]     c8        513
    x[70]     c9        121
    x[70]     c10       530
    x[70]     c11       488
    x[70]     c1        731
    x[70]     OBJ       -567
    x[71]     c2        235
    x[71]     c3        221
    x[71]     c4        243
    x[71]     c5        728
    x[71]     c6        165
    x[71]     c7        758
    x[71]     c8        557
    x[71]     c9        953
    x[71]     c10       102
    x[71]     c11       635
    x[71]     c1        166
    x[71]     OBJ       -1404
    x[72]     c2        635
    x[72]     c3        520
    x[72]     c4        319
    x[72]     c5        69
    x[72]     c6        959
    x[72]     c7        30
    x[72]     c8        796
    x[72]     c9        965
    x[72]     c10       92
    x[72]     c11       379
    x[72]     c1        659
    x[72]     OBJ       -770
    x[73]     c2        733
    x[73]     c3        695
    x[73]     c4        83
    x[73]     c5        844
    x[73]     c6        738
    x[73]     c7        887
    x[73]     c8        631
    x[73]     c9        90
    x[73]     c10       402
    x[73]     c11       596
    x[73]     c1        15
    x[73]     OBJ       -1544
    x[74]     c2        701
    x[74]     c3        914
    x[74]     c4        552
    x[74]     c5        261
    x[74]     c6        379
    x[74]     c7        167
    x[74]     c8        563
    x[74]     c9        300
    x[74]     c10       577
    x[74]     c11       512
    x[74]     c1        230
    x[74]     OBJ       -1108
    x[75]     c2        300
    x[75]     c3        272
    x[75]     c4        816
    x[75]     c5        266
    x[75]     c6        98
    x[75]     c7        647
    x[75]     c8        949
    x[75]     c9        767
    x[75]     c10       705
    x[75]     c11       368
    x[75]     c1        577
    x[75]     OBJ       -611
    x[76]     c2        997
    x[76]     c3        135
    x[76]     c4        620
    x[76]     c5        446
    x[76]     c6        950
    x[76]     c7        272
    x[76]     c8        33
    x[76]     c9        227
    x[76]     c10       883
    x[76]     c11       752
    x[76]     c1        807
    x[76]     OBJ       -803
    x[77]     c2        65
    x[77]     c3        777
    x[77]     c4        366
    x[77]     c5        246
    x[77]     c6        320
    x[77]     c7        328
    x[77]     c8        426
    x[77]     c9        856
    x[77]     c10       739
    x[77]     c11       354
    x[77]     c1        420
    x[77]     OBJ       -933
    x[78]     c2        769
    x[78]     c3        509
    x[78]     c4        379
    x[78]     c5        418
    x[78]     c6        837
    x[78]     c7        524
    x[78]     c8        402
    x[78]     c9        398
    x[78]     c10       746
    x[78]     c11       860
    x[78]     c1        862
    x[78]     OBJ       -744
    x[79]     c2        630
    x[79]     c3        803
    x[79]     c4        190
    x[79]     c5        807
    x[79]     c6        924
    x[79]     c7        464
    x[79]     c8        162
    x[79]     c9        341
    x[79]     c10       196
    x[79]     c11       674
    x[79]     c1        974
    x[79]     OBJ       -496
    x[80]     c2        28
    x[80]     c3        111
    x[80]     c4        736
    x[80]     c5        878
    x[80]     c6        237
    x[80]     c7        421
    x[80]     c8        600
    x[80]     c9        824
    x[80]     c10       10
    x[80]     c11       542
    x[80]     c1        991
    x[80]     OBJ       -547
    x[81]     c2        75
    x[81]     c3        399
    x[81]     c4        931
    x[81]     c5        654
    x[81]     c6        1
    x[81]     c7        662
    x[81]     c8        228
    x[81]     c9        379
    x[81]     c10       504
    x[81]     c11       488
    x[81]     c1        795
    x[81]     OBJ       -679
    x[82]     c2        69
    x[82]     c3        633
    x[82]     c4        112
    x[82]     c5        921
    x[82]     c6        667
    x[82]     c7        454
    x[82]     c8        279
    x[82]     c9        366
    x[82]     c10       776
    x[82]     c11       741
    x[82]     c1        938
    x[82]     OBJ       -263
    x[83]     c2        457
    x[83]     c3        48
    x[83]     c4        685
    x[83]     c5        366
    x[83]     c6        442
    x[83]     c7        543
    x[83]     c8        366
    x[83]     c9        496
    x[83]     c10       78
    x[83]     c11       970
    x[83]     c1        792
    x[83]     OBJ       -554
    x[84]     c2        213
    x[84]     c3        661
    x[84]     c4        792
    x[84]     c5        578
    x[84]     c6        681
    x[84]     c7        963
    x[84]     c8        370
    x[84]     c9        849
    x[84]     c10       357
    x[84]     c11       163
    x[84]     c1        647
    x[84]     OBJ       -878
    x[85]     c2        590
    x[85]     c3        51
    x[85]     c4        713
    x[85]     c5        681
    x[85]     c6        835
    x[85]     c7        901
    x[85]     c8        419
    x[85]     c9        801
    x[85]     c10       570
    x[85]     c11       239
    x[85]     c1        59
    x[85]     OBJ       -1454
    x[86]     c2        945
    x[86]     c3        670
    x[86]     c4        444
    x[86]     c5        520
    x[86]     c6        854
    x[86]     c7        948
    x[86]     c8        493
    x[86]     c9        975
    x[86]     c10       165
    x[86]     c11       442
    x[86]     c1        991
    x[86]     OBJ       -604
    x[87]     c2        144
    x[87]     c3        181
    x[87]     c4        516
    x[87]     c5        635
    x[87]     c6        430
    x[87]     c7        717
    x[87]     c8        340
    x[87]     c9        269
    x[87]     c10       343
    x[87]     c11       388
    x[87]     c1        759
    x[87]     OBJ       -657
    x[88]     c2        716
    x[88]     c3        340
    x[88]     c4        80
    x[88]     c5        36
    x[88]     c6        964
    x[88]     c7        666
    x[88]     c8        356
    x[88]     c9        335
    x[88]     c10       965
    x[88]     c11       846
    x[88]     c1        627
    x[88]     OBJ       -787
    x[89]     c2        164
    x[89]     c3        545
    x[89]     c4        474
    x[89]     c5        516
    x[89]     c6        172
    x[89]     c7        148
    x[89]     c8        470
    x[89]     c9        572
    x[89]     c10       986
    x[89]     c11       705
    x[89]     c1        328
    x[89]     OBJ       -1100
    x[90]     c2        396
    x[90]     c3        678
    x[90]     c4        314
    x[90]     c5        20
    x[90]     c6        836
    x[90]     c7        32
    x[90]     c8        359
    x[90]     c9        653
    x[90]     c10       747
    x[90]     c11       131
    x[90]     c1        902
    x[90]     OBJ       -246
    x[91]     c2        158
    x[91]     c3        414
    x[91]     c4        515
    x[91]     c5        608
    x[91]     c6        976
    x[91]     c7        296
    x[91]     c8        287
    x[91]     c9        610
    x[91]     c10       72
    x[91]     c11       233
    x[91]     c1        629
    x[91]     OBJ       -673
    x[92]     c2        449
    x[92]     c3        117
    x[92]     c4        990
    x[92]     c5        845
    x[92]     c6        599
    x[92]     c7        140
    x[92]     c8        789
    x[92]     c9        906
    x[92]     c10       90
    x[92]     c11       832
    x[92]     c1        510
    x[92]     OBJ       -899
    x[93]     c2        653
    x[93]     c3        857
    x[93]     c4        887
    x[93]     c5        104
    x[93]     c6        310
    x[93]     c7        271
    x[93]     c8        603
    x[93]     c9        495
    x[93]     c10       846
    x[93]     c11       875
    x[93]     c1        103
    x[93]     OBJ       -1454
    x[94]     c2        912
    x[94]     c3        683
    x[94]     c4        454
    x[94]     c5        9
    x[94]     c6        669
    x[94]     c7        769
    x[94]     c8        655
    x[94]     c9        36
    x[94]     c10       666
    x[94]     c11       783
    x[94]     c1        788
    x[94]     OBJ       -698
    x[95]     c2        828
    x[95]     c3        363
    x[95]     c4        587
    x[95]     c5        841
    x[95]     c6        733
    x[95]     c7        52
    x[95]     c8        266
    x[95]     c9        525
    x[95]     c10       481
    x[95]     c11       911
    x[95]     c1        73
    x[95]     OBJ       -1309
    x[96]     c2        892
    x[96]     c3        24
    x[96]     c4        203
    x[96]     c5        266
    x[96]     c6        8
    x[96]     c7        542
    x[96]     c8        506
    x[96]     c9        607
    x[96]     c10       968
    x[96]     c11       149
    x[96]     c1        379
    x[96]     OBJ       -997
    x[97]     c2        313
    x[97]     c3        893
    x[97]     c4        603
    x[97]     c5        408
    x[97]     c6        804
    x[97]     c7        466
    x[97]     c8        869
    x[97]     c9        904
    x[97]     c10       434
    x[97]     c11       469
    x[97]     c1        573
    x[97]     OBJ       -930
    x[98]     c2        193
    x[98]     c3        374
    x[98]     c4        698
    x[98]     c5        877
    x[98]     c6        677
    x[98]     c7        169
    x[98]     c8        365
    x[98]     c9        537
    x[98]     c10       319
    x[98]     c11       462
    x[98]     c1        783
    x[98]     OBJ       -688
    x[99]     c2        874
    x[99]     c3        681
    x[99]     c4        423
    x[99]     c5        978
    x[99]     c6        365
    x[99]     c7        2
    x[99]     c8        580
    x[99]     c9        798
    x[99]     c10       775
    x[99]     c11       609
    x[99]     c1        310
    x[99]     OBJ       -1209
    x[100]    c2        289
    x[100]    c3        928
    x[100]    c4        738
    x[100]    c5        289
    x[100]    c6        858
    x[100]    c7        107
    x[100]    c8        501
    x[100]    c9        273
    x[100]    c10       315
    x[100]    c11       264
    x[100]    c1        38
    x[100]    OBJ       -1366
RHS
    rhs       c2        25686
    rhs       c3        23714
    rhs       c4        24477
    rhs       c5        26968
    rhs       c6        27804
    rhs       c7        23998
    rhs       c8        25473
    rhs       c9        24026
    rhs       c10       22659
    rhs       c11       24437
    rhs       c1        25678
RANGES
BOUNDS
 LO bounds    ss[1]     0
 PL bounds    ss[1]
 MI bounds    s[1]
 UP bounds    s[1]      0
 MI bounds    s[2]
 UP bounds    s[2]      0
 MI bounds    s[3]
 UP bounds    s[3]      0
 MI bounds    s[4]
 UP bounds    s[4]      0
 MI bounds    s[5]
 UP bounds    s[5]      0
 MI bounds    s[6]
 UP bounds    s[6]      0
 MI bounds    s[7]
 UP bounds    s[7]      0
 MI bounds    s[8]
 UP bounds    s[8]      0
 MI bounds    s[9]
 UP bounds    s[9]      0
 MI bounds    s[10]
 UP bounds    s[10]     0
 BV bounds    x[1]
 BV bounds    x[2]
 BV bounds    x[3]
 BV bounds    x[4]
 BV bounds    x[5]
 BV bounds    x[6]
 BV bounds    x[7]
 BV bounds    x[8]
 BV bounds    x[9]
 BV bounds    x[10]
 BV bounds    x[11]
 BV bounds    x[12]
 BV bounds    x[13]
 BV bounds    x[14]
 BV bounds    x[15]
 BV bounds    x[16]
 BV bounds    x[17]
 BV bounds    x[18]
 BV bounds    x[19]
 BV bounds    x[20]
 BV bounds    x[21]
 BV bounds    x[22]
 BV bounds    x[23]
 BV bounds    x[24]
 BV bounds    x[25]
 BV bounds    x[26]
 BV bounds    x[27]
 BV bounds    x[28]
 BV bounds    x[29]
 BV bounds    x[30]
 BV bounds    x[31]
 BV bounds    x[32]
 BV bounds    x[33]
 BV bounds    x[34]
 BV bounds    x[35]
 BV bounds    x[36]
 BV bounds    x[37]
 BV bounds    x[38]
 BV bounds    x[39]
 BV bounds    x[40]
 BV bounds    x[41]
 BV bounds    x[42]
 BV bounds    x[43]
 BV bounds    x[44]
 BV bounds    x[45]
 BV bounds    x[46]
 BV bounds    x[47]
 BV bounds    x[48]
 BV bounds    x[49]
 BV bounds    x[50]
 BV bounds    x[51]
 BV bounds    x[52]
 BV bounds    x[53]
 BV bounds    x[54]
 BV bounds    x[55]
 BV bounds    x[56]
 BV bounds    x[57]
 BV bounds    x[58]
 BV bounds    x[59]
 BV bounds    x[60]
 BV bounds    x[61]
 BV bounds    x[62]
 BV bounds    x[63]
 BV bounds    x[64]
 BV bounds    x[65]
 BV bounds    x[66]
 BV bounds    x[67]
 BV bounds    x[68]
 BV bounds    x[69]
 BV bounds    x[70]
 BV bounds    x[71]
 BV bounds    x[72]
 BV bounds    x[73]
 BV bounds    x[74]
 BV bounds    x[75]
 BV bounds    x[76]
 BV bounds    x[77]
 BV bounds    x[78]
 BV bounds    x[79]
 BV bounds    x[80]
 BV bounds    x[81]
 BV bounds    x[82]
 BV bounds    x[83]
 BV bounds    x[84]
 BV bounds    x[85]
 BV bounds    x[86]
 BV bounds    x[87]
 BV bounds    x[88]
 BV bounds    x[89]
 BV bounds    x[90]
 BV bounds    x[91]
 BV bounds    x[92]
 BV bounds    x[93]
 BV bounds    x[94]
 BV bounds    x[95]
 BV bounds    x[96]
 BV bounds    x[97]
 BV bounds    x[98]
 BV bounds    x[99]
 BV bounds    x[100]
ENDATA
